words_hard_train/5768.qaiger
aag 140 16 0 1 124
2
4
12
14
18
22
26
30
34
44
52
66
82
98
114
130
281
6 2 4
8 3 5
10 7 9
16 13 15
20 16 19
24 20 23
28 24 27
32 28 31
36 32 35
38 10 37
40 11 36
42 39 41
46 44 12
48 12 14
50 49 17
54 50 52
56 47 55
58 51 53
60 57 59
62 17 18
64 63 21
68 65 67
70 64 66
72 69 71
74 60 72
76 75 71
78 21 22
80 79 25
84 81 83
86 80 82
88 85 87
90 77 88
92 91 87
94 25 26
96 95 29
100 97 99
102 96 98
104 101 103
106 93 104
108 107 103
110 29 30
112 111 33
116 113 115
118 112 114
120 117 119
122 109 120
124 123 119
126 33 34
128 127 37
132 129 131
134 128 130
136 133 135
138 125 136
140 139 135
142 43 141
144 42 140
146 143 145
148 130 3
150 147 149
152 56 59
154 45 13
156 55 59
158 155 157
160 153 159
162 61 73
164 163 75
166 160 165
168 76 89
170 169 91
172 166 171
174 92 105
176 175 107
178 172 177
180 108 121
182 181 123
184 178 183
186 124 137
188 187 139
190 184 189
192 151 191
194 98 3
196 82 3
198 66 3
200 167 170
202 201 173
204 52 3
206 204 165
208 207 161
210 44 3
212 210 153
214 208 213
216 215 167
218 205 164
220 216 219
222 203 221
224 198 223
226 220 171
228 225 227
230 173 176
232 231 179
234 228 233
236 196 235
238 229 232
240 237 239
242 179 182
244 243 185
246 240 245
248 194 247
250 241 244
252 249 251
254 185 188
256 253 255
258 192 257
260 255 191
262 252 261
264 263 114
266 264 3
268 258 267
270 266 190
272 269 271
274 146 148
276 272 275
278 151 270
280 277 279
i0 2 y1[7]
i1 1 x2[7]
i2 1 x2[0]
i3 1 x2[1]
i4 1 x2[2]
i5 1 x2[3]
i6 1 x2[4]
i7 1 x2[5]
i8 1 x2[6]
i9 2 y1[0]
i10 2 y1[1]
i11 2 y1[2]
i12 2 y1[3]
i13 2 y1[4]
i14 2 y1[5]
i15 2 y1[6]
o0 bv[0]
c
simplified
  <=
    subtract
      2 y1
      1 x2
    add
      abs
        2 y1
      2 y1
