words_hard_train/5768.qaiger.qdimacs
p cnf 140 373
a 2 6 7 9 11 13 15 17 0
e 1 3 4 5 8 10 12 14 16 18 19 20 21 22 23 24 25 26 27 28 29 30 31 32 33 34 35 36 37 38 39 40 41 42 43 44 45 46 47 48 49 50 51 52 53 54 55 56 57 58 59 60 61 62 63 64 65 66 67 68 69 70 71 72 73 74 75 76 77 78 79 80 81 82 83 84 85 86 87 88 89 90 91 92 93 94 95 96 97 98 99 100 101 102 103 104 105 106 107 108 109 110 111 112 113 114 115 116 117 118 119 120 121 122 123 124 125 126 127 128 129 130 131 132 133 134 135 136 137 138 139 140 0
-1 -2 3 0
1 -3 0
2 -3 0
1 2 4 0
-1 -4 0
-2 -4 0
3 4 5 0
-3 -5 0
-4 -5 0
6 7 8 0
-6 -8 0
-7 -8 0
-8 9 10 0
8 -10 0
-9 -10 0
-10 11 12 0
10 -12 0
-11 -12 0
-12 13 14 0
12 -14 0
-13 -14 0
-14 15 16 0
14 -16 0
-15 -16 0
-16 17 18 0
16 -18 0
-17 -18 0
-5 18 19 0
5 -19 0
-18 -19 0
5 -18 20 0
-5 -20 0
18 -20 0
19 20 21 0
-19 -21 0
-20 -21 0
-22 -6 23 0
22 -23 0
6 -23 0
-6 -7 24 0
6 -24 0
7 -24 0
24 8 25 0
-24 -25 0
-8 -25 0
-25 -26 27 0
25 -27 0
26 -27 0
23 27 28 0
-23 -28 0
-27 -28 0
25 26 29 0
-25 -29 0
-26 -29 0
28 29 30 0
-28 -30 0
-29 -30 0
8 -9 31 0
-8 -31 0
9 -31 0
31 10 32 0
-31 -32 0
-10 -32 0
32 33 34 0
-32 -34 0
-33 -34 0
-32 -33 35 0
32 -35 0
33 -35 0
34 35 36 0
-34 -36 0
-35 -36 0
-30 -36 37 0
30 -37 0
36 -37 0
37 35 38 0
-37 -38 0
-35 -38 0
10 -11 39 0
-10 -39 0
11 -39 0
39 12 40 0
-39 -40 0
-12 -40 0
40 41 42 0
-40 -42 0
-41 -42 0
-40 -41 43 0
40 -43 0
41 -43 0
42 43 44 0
-42 -44 0
-43 -44 0
38 -44 45 0
-38 -45 0
44 -45 0
45 43 46 0
-45 -46 0
-43 -46 0
12 -13 47 0
-12 -47 0
13 -47 0
47 14 48 0
-47 -48 0
-14 -48 0
48 49 50 0
-48 -50 0
-49 -50 0
-48 -49 51 0
48 -51 0
49 -51 0
50 51 52 0
-50 -52 0
-51 -52 0
46 -52 53 0
-46 -53 0
52 -53 0
53 51 54 0
-53 -54 0
-51 -54 0
14 -15 55 0
-14 -55 0
15 -55 0
55 16 56 0
-55 -56 0
-16 -56 0
56 57 58 0
-56 -58 0
-57 -58 0
-56 -57 59 0
56 -59 0
57 -59 0
58 59 60 0
-58 -60 0
-59 -60 0
54 -60 61 0
-54 -61 0
60 -61 0
61 59 62 0
-61 -62 0
-59 -62 0
16 -17 63 0
-16 -63 0
17 -63 0
63 18 64 0
-63 -64 0
-18 -64 0
64 65 66 0
-64 -66 0
-65 -66 0
-64 -65 67 0
64 -67 0
65 -67 0
66 67 68 0
-66 -68 0
-67 -68 0
62 -68 69 0
-62 -69 0
68 -69 0
69 67 70 0
-69 -70 0
-67 -70 0
21 70 71 0
-21 -71 0
-70 -71 0
-21 -70 72 0
21 -72 0
70 -72 0
71 72 73 0
-71 -73 0
-72 -73 0
-65 1 74 0
65 -74 0
-1 -74 0
73 74 75 0
-73 -75 0
-74 -75 0
-28 29 76 0
28 -76 0
-29 -76 0
22 6 77 0
-22 -77 0
-6 -77 0
27 29 78 0
-27 -78 0
-29 -78 0
77 78 79 0
-77 -79 0
-78 -79 0
76 79 80 0
-76 -80 0
-79 -80 0
30 36 81 0
-30 -81 0
-36 -81 0
81 37 82 0
-81 -82 0
-37 -82 0
-80 82 83 0
80 -83 0
-82 -83 0
-38 44 84 0
38 -84 0
-44 -84 0
84 45 85 0
-84 -85 0
-45 -85 0
-83 85 86 0
83 -86 0
-85 -86 0
-46 52 87 0
46 -87 0
-52 -87 0
87 53 88 0
-87 -88 0
-53 -88 0
-86 88 89 0
86 -89 0
-88 -89 0
-54 60 90 0
54 -90 0
-60 -90 0
90 61 91 0
-90 -91 0
-61 -91 0
-89 91 92 0
89 -92 0
-91 -92 0
-62 68 93 0
62 -93 0
-68 -93 0
93 69 94 0
-93 -94 0
-69 -94 0
-92 94 95 0
92 -95 0
-94 -95 0
75 95 96 0
-75 -96 0
-95 -96 0
-49 1 97 0
49 -97 0
-1 -97 0
-41 1 98 0
41 -98 0
-1 -98 0
-33 1 99 0
33 -99 0
-1 -99 0
83 -85 100 0
-83 -100 0
85 -100 0
100 86 101 0
-100 -101 0
-86 -101 0
-26 1 102 0
26 -102 0
-1 -102 0
-102 82 103 0
102 -103 0
-82 -103 0
103 80 104 0
-103 -104 0
-80 -104 0
-22 1 105 0
22 -105 0
-1 -105 0
-105 76 106 0
105 -106 0
-76 -106 0
-104 106 107 0
104 -107 0
-106 -107 0
107 83 108 0
-107 -108 0
-83 -108 0
102 -82 109 0
-102 -109 0
82 -109 0
-108 109 110 0
108 -110 0
-109 -110 0
101 110 111 0
-101 -111 0
-110 -111 0
-99 111 112 0
99 -112 0
-111 -112 0
-110 85 113 0
110 -113 0
-85 -113 0
112 113 114 0
-112 -114 0
-113 -114 0
86 -88 115 0
-86 -115 0
88 -115 0
115 89 116 0
-115 -116 0
-89 -116 0
-114 116 117 0
114 -117 0
-116 -117 0
-98 117 118 0
98 -118 0
-117 -118 0
114 -116 119 0
-114 -119 0
116 -119 0
118 119 120 0
-118 -120 0
-119 -120 0
89 -91 121 0
-89 -121 0
91 -121 0
121 92 122 0
-121 -122 0
-92 -122 0
-120 122 123 0
120 -123 0
-122 -123 0
-97 123 124 0
97 -124 0
-123 -124 0
120 -122 125 0
-120 -125 0
122 -125 0
124 125 126 0
-124 -126 0
-125 -126 0
92 -94 127 0
-92 -127 0
94 -127 0
126 127 128 0
-126 -128 0
-127 -128 0
-96 128 129 0
96 -129 0
-128 -129 0
127 95 130 0
-127 -130 0
-95 -130 0
-126 130 131 0
126 -131 0
-130 -131 0
131 -57 132 0
-131 -132 0
57 -132 0
-132 1 133 0
132 -133 0
-1 -133 0
-129 133 134 0
129 -134 0
-133 -134 0
-133 -95 135 0
133 -135 0
95 -135 0
134 135 136 0
-134 -136 0
-135 -136 0
-73 -74 137 0
73 -137 0
74 -137 0
-136 137 138 0
136 -138 0
-137 -138 0
75 -135 139 0
-75 -139 0
135 -139 0
138 139 140 0
-138 -140 0
-139 -140 0
-140 0
